<number of tasks>
20

<cycle time>
1000

<order strength>
0,521


<task times>
1 229
2 93
3 279
4 473
5 233
6 218
7 116
8 110
9 113
10 460
11 77
12 201
13 141
14 39
15 268
16 46
17 123
18 289
19 180
20 81

<precedence relations>
1,6
2,11
3,5
3,10
3,11
4,6
5,7
5,8
5,9
6,10
6,11
7,13
7,14
7,17
8,12
11,13
11,14
11,15
12,17
14,18
14,20
15,16
15,17
17,18
17,19
17,20

<end>
